NAME: tsp50_7
COMMENT: 50-tsp problem (Padberg/Rinaldi)
TYPE: TSP
DIMENSION: 50
EDGE_WEIGHT_TYPE : EUC_2D
NODE_COORD_SECTION
1 2 4
2 16 10
3 39 40
4 5 23
5 25 39
6 27 16
7 32 10
8 6 22
9 27 30
10 24 13
11 14 7
12 11 12
13 4 2
14 5 36
15 33 22
16 14 21
17 17 39
18 14 17
19 16 20
20 19 25
21 30 12
22 16 27
23 13 1
24 34 31
25 34 21
26 20 3
27 9 1
28 11 20
29 2 25
30 17 34
31 18 21
32 30 24
33 23 8
34 33 26
35 6 8
36 2 32
37 14 40
38 37 38
39 21 20
40 7 21
41 27 32
42 33 4
43 2 28
44 16 17
45 35 26
46 9 16
47 36 19
48 9 11
49 37 34
50 30 27
